unsat
(define-fun f ((x (_ BitVec 64))) (_ BitVec 64) (let ((_let_1 (smol x))) (let ((_let_2 (bvnot _let_1))) (im (bvand #b0000000000000000000000000000000000000000000000000000000000000001 (im (ehad x) #b0000000000000000000000000000000000000000000000000000000000000001 x)) _let_2 (im (ehad (bvand x (bvadd x _let_1))) _let_2 (smol #b0000000000000000000000000000000000000000000000000000000000000001))))))
344.06user 0.78system 5:44.87elapsed 99%CPU (0avgtext+0avgdata 929876maxresident)k
16inputs+8outputs (0major+254542minor)pagefaults 0swaps
